NAME: concorde91
TYPE: TSP
DIMENSION: 25 
EDGE_WEIGHT_TYPE: EUC_2D
NODE_COORD_SECTION
1 41 55
2 25 59
3 16 93
4 88 64
5 63 49
6 97 25
7 95 13
8 96 45
9 90 79
10 42 95
11 100 36
12 78 30
13 76 37
14 14 30
15 25 5
16 59 91
17 43 15
18 11 54
19 76 34
20 90 71
21 14 54
22 38 94
23 17 95
24 100 81
25 17 57
